row=8;
column=8;
Board=[|1,6,5,2,4,3,7,8|6,5,7,3,1,4,8,2|8,7,6,4,5,2,3,1|2,3,4,6,8,5,1,7|4,8,3,7,2,1,5,6|7,4,8,1,3,6,2,5|3,1,2,5,7,8,6,4|5,2,1,8,6,7,4,3|];
horizontal=[|0,-1,1,0,1,0,0|1,0,1,1,0,0,1|1,1,1,0,1,0,1|0,0,0,0,1,1,0|0,1,0,1,1,0,0|1,0,1,0,0,1,0|1,0,0,0,0,1,-1|1,1,0,1,0,1,1|];
vertical=[|0,1,0,0,1,0,0,1|0,0,1,0,0,1,1,1|1,1,1,0,0,0,1,0|0,0,1,0,1,1,0,1|0,1,0,1,-1,0,1,1|1,1,1,0,0,0,0,1|0,0,1,0,1,1,1,1|];
